unknown
(model
; cardinality of BoundSet is 3
(declare-sort BoundSet 0)
; rep: @uc_BoundSet_0
; rep: @uc_BoundSet_1
; rep: @uc_BoundSet_2
(declare-sort UnboundSet 0)
(define-fun IsInGlasses ((BOUND_VARIABLE_432 BoundSet)) Bool true)
(define-fun HasBlueGrayScarf ((BOUND_VARIABLE_432 BoundSet)) Bool true)
(define-fun Smiles ((BOUND_VARIABLE_432 BoundSet)) Bool true)
(define-fun IsSmiling ((BOUND_VARIABLE_432 BoundSet)) Bool false)
)
unsat
(error "Cannot get the current model unless immediately preceded by SAT/INVALID or UNKNOWN response.")
